GLPSOL--GLPK LP/MIP Solver 5.0
Parameter(s) specified in the command line:
 --lp ../modeles/10_344.lp --log 10_344.log
Reading problem data from '../modeles/10_344.lp'...
3481 rows, 6900 columns, 24110 non-zeros
3440 integer variables, all of which are binary
10397 lines were read
GLPK Integer Optimizer 5.0
3481 rows, 6900 columns, 24110 non-zeros
3440 integer variables, all of which are binary
Preprocessing...
3420 constraint coefficient(s) were reduced
3481 rows, 6890 columns, 24100 non-zeros
3440 integer variables, all of which are binary
Scaling...
 A: min|aij| =  1.352e-04  max|aij| =  4.000e+00  ratio =  2.958e+04
GM: min|aij| =  7.625e-02  max|aij| =  1.311e+01  ratio =  1.720e+02
EQ: min|aij| =  5.814e-03  max|aij| =  1.000e+00  ratio =  1.720e+02
2N: min|aij| =  3.906e-03  max|aij| =  1.751e+00  ratio =  4.481e+02
Constructing initial basis...
Size of triangular part is 3481
Solving LP relaxation...
GLPK Simplex Optimizer 5.0
3481 rows, 6890 columns, 24100 non-zeros
      0: obj =   2.000000000e+01 inf =   4.950e+01 (21)
    209: obj =   3.282794990e-01 inf =   0.000e+00 (0)
*   615: obj =  -3.161945032e+00 inf =   1.033e-14 (0)
OPTIMAL LP SOLUTION FOUND
Integer optimization begins...
Long-step dual simplex will be used
+   615: mip =     not found yet >=              -inf        (1; 0)
+   839: >>>>>  -3.161945032e+00 >=  -3.161945032e+00 < 0.1% (223; 0)
+   839: mip =  -3.161945032e+00 >=     tree is empty   0.0% (0; 445)
INTEGER OPTIMAL SOLUTION FOUND
Time used:   1.3 secs
Memory used: 10.1 Mb (10628352 bytes)
